TCS_Benchmarks/redos_fix/snort3_output_distinct_762_761_0_0.txt
([^\n\r]*)([^\n\r]*)
([^\n\r]*)([cC][dD][pP][nN][oO][dD][eE]=)([^\n\r]*)